NAME : pairopt
TYPE : ACVRP
DIMENSION : 8
EDGE_WEIGHT_TYPE : EXPLICIT
EDGE_WEIGHT_FORMAT : FULL_MATRIX
CAPACITY : 359
VEHICLES : 2
EDGE_WEIGHT_SECTION
100000 -100000 -100000 100000 100000 100000 100000 100000 
100000 100000 1000000 2227 2668 2873 2834 3125 
100000 1000000 100000 1060 2335 2602 2658 2985 
0 0 0 100000 3001 3269 3305 3640 
0 0 0 3001 100000 189 237 465 
0 0 0 3269 189 100000 89 278 
0 0 0 3305 237 89 100000 229 
0 0 0 3640 465 278 229 100000 
DEMAND_SECTION
1 0
2 0
3 0
4 58
5 144
6 20
7 99
8 155
DEPOT_SECTION
1
EOF